c 
p cnf 10 40
9 -5 7 -3 -6 0
-3 0
4 3 0
2 -8 10 0
6 -2 9 3 -5 0
-8 2 -9 0
4 -3 9 -7 0
7 0
3 -1 8 -10 0
-3 -2 0
-3 0
5 6 7 3 0
-5 7 6 -9 -4 0
4 0
-3 -6 -4 -2 8 0
-5 2 10 -3 0
10 0
8 2 -5 4 6 0
2 4 8 5 3 0
-3 -9 0
3 -6 9 10 0
3 -5 0
6 0
10 0
-8 3 0
3 -2 9 -6 -8 0
-6 -7 0
-4 2 -1 0
4 -8 2 9 6 0
7 3 4 1 0
-10 5 6 0
3 -9 10 -5 -7 0
-6 -8 5 -9 10 0
4 -6 0
-9 -5 -7 6 -2 0
-6 2 0
10 3 6 -4 0
7 1 0
7 0
10 0
